
begin projections
C:pz
end projections
guiding_centres=.true.

num_bands = 11
num_wann =  2

iprint = 2

dis_num_iter =  4000
dis_mix_ratio = 0.9
dis_win_max     =  12
dis_win_min     = -25
dis_froz_max    = -1.1   !-1.1
dis_froz_min    = -7.5   !-7.5
dis_conv_tol = 1.0d-13
num_iter  =   500

write_u_matrices = .true.
write_xyz=.true.

begin unit_cell_cart
ang
 2.460  0.00000000000  0.0000
-1.230  2.13042249331  0.0000
 0.0000  0.0000000000 12.000
end unit_cell_cart

begin atoms_frac
 C    0.0000000000000000   0.0000000000000000   0.000000000   
 C    0.3333333333333333   0.6666666666666667   0.000000000
end atoms_frac

bands_plot      =  true
begin kpoint_path
G 0.0000000000 0.0000000000 0.0000000000   M 0.5000000000 0.0000000000 0.0000000000
M 0.5000000000 0.0000000000 0.0000000000   K 0.3333333333 0.3333333333 0.0000000000
K 0.3333333333 0.3333333333 0.0000000000   G 0.0000000000 0.0000000000 0.0000000000
end kpoint_path

mp_grid : 36 36 1

begin kpoints
      0.0000000000000000      0.0000000000000000      0.0000000000000000 
      0.0000000000000000      0.0277777777777778      0.0000000000000000 
      0.0000000000000000      0.0555555555555556      0.0000000000000000 
      0.0000000000000000      0.0833333333333333      0.0000000000000000 
      0.0000000000000000      0.1111111111111111      0.0000000000000000 
      0.0000000000000000      0.1388888888888889      0.0000000000000000 
      0.0000000000000000      0.1666666666666667      0.0000000000000000 
      0.0000000000000000      0.1944444444444444      0.0000000000000000 
      0.0000000000000000      0.2222222222222222      0.0000000000000000 
      0.0000000000000000      0.2500000000000000      0.0000000000000000 
      0.0000000000000000      0.2777777777777778      0.0000000000000000 
      0.0000000000000000      0.3055555555555556      0.0000000000000000 
      0.0000000000000000      0.3333333333333333      0.0000000000000000 
      0.0000000000000000      0.3611111111111111      0.0000000000000000 
      0.0000000000000000      0.3888888888888889      0.0000000000000000 
      0.0000000000000000      0.4166666666666667      0.0000000000000000 
      0.0000000000000000      0.4444444444444444      0.0000000000000000 
      0.0000000000000000      0.4722222222222222      0.0000000000000000 
      0.0000000000000000      0.5000000000000000      0.0000000000000000 
      0.0000000000000000      0.5277777777777778      0.0000000000000000 
      0.0000000000000000      0.5555555555555556      0.0000000000000000 
      0.0000000000000000      0.5833333333333334      0.0000000000000000 
      0.0000000000000000      0.6111111111111112      0.0000000000000000 
      0.0000000000000000      0.6388888888888888      0.0000000000000000 
      0.0000000000000000      0.6666666666666666      0.0000000000000000 
      0.0000000000000000      0.6944444444444444      0.0000000000000000 
      0.0000000000000000      0.7222222222222222      0.0000000000000000 
      0.0000000000000000      0.7500000000000000      0.0000000000000000 
      0.0000000000000000      0.7777777777777778      0.0000000000000000 
      0.0000000000000000      0.8055555555555556      0.0000000000000000 
      0.0000000000000000      0.8333333333333334      0.0000000000000000 
      0.0000000000000000      0.8611111111111112      0.0000000000000000 
      0.0000000000000000      0.8888888888888888      0.0000000000000000 
      0.0000000000000000      0.9166666666666666      0.0000000000000000 
      0.0000000000000000      0.9444444444444444      0.0000000000000000 
      0.0000000000000000      0.9722222222222222      0.0000000000000000 
      0.0277777777777778      0.0000000000000000      0.0000000000000000 
      0.0277777777777778      0.0277777777777778      0.0000000000000000 
      0.0277777777777778      0.0555555555555556      0.0000000000000000 
      0.0277777777777778      0.0833333333333333      0.0000000000000000 
      0.0277777777777778      0.1111111111111111      0.0000000000000000 
      0.0277777777777778      0.1388888888888889      0.0000000000000000 
      0.0277777777777778      0.1666666666666667      0.0000000000000000 
      0.0277777777777778      0.1944444444444444      0.0000000000000000 
      0.0277777777777778      0.2222222222222222      0.0000000000000000 
      0.0277777777777778      0.2500000000000000      0.0000000000000000 
      0.0277777777777778      0.2777777777777778      0.0000000000000000 
      0.0277777777777778      0.3055555555555556      0.0000000000000000 
      0.0277777777777778      0.3333333333333333      0.0000000000000000 
      0.0277777777777778      0.3611111111111111      0.0000000000000000 
      0.0277777777777778      0.3888888888888889      0.0000000000000000 
      0.0277777777777778      0.4166666666666667      0.0000000000000000 
      0.0277777777777778      0.4444444444444444      0.0000000000000000 
      0.0277777777777778      0.4722222222222222      0.0000000000000000 
      0.0277777777777778      0.5000000000000000      0.0000000000000000 
      0.0277777777777778      0.5277777777777778      0.0000000000000000 
      0.0277777777777778      0.5555555555555556      0.0000000000000000 
      0.0277777777777778      0.5833333333333334      0.0000000000000000 
      0.0277777777777778      0.6111111111111112      0.0000000000000000 
      0.0277777777777778      0.6388888888888888      0.0000000000000000 
      0.0277777777777778      0.6666666666666666      0.0000000000000000 
      0.0277777777777778      0.6944444444444444      0.0000000000000000 
      0.0277777777777778      0.7222222222222222      0.0000000000000000 
      0.0277777777777778      0.7500000000000000      0.0000000000000000 
      0.0277777777777778      0.7777777777777778      0.0000000000000000 
      0.0277777777777778      0.8055555555555556      0.0000000000000000 
      0.0277777777777778      0.8333333333333334      0.0000000000000000 
      0.0277777777777778      0.8611111111111112      0.0000000000000000 
      0.0277777777777778      0.8888888888888888      0.0000000000000000 
      0.0277777777777778      0.9166666666666666      0.0000000000000000 
      0.0277777777777778      0.9444444444444444      0.0000000000000000 
      0.0277777777777778      0.9722222222222222      0.0000000000000000 
      0.0555555555555556      0.0000000000000000      0.0000000000000000 
      0.0555555555555556      0.0277777777777778      0.0000000000000000 
      0.0555555555555556      0.0555555555555556      0.0000000000000000 
      0.0555555555555556      0.0833333333333333      0.0000000000000000 
      0.0555555555555556      0.1111111111111111      0.0000000000000000 
      0.0555555555555556      0.1388888888888889      0.0000000000000000 
      0.0555555555555556      0.1666666666666667      0.0000000000000000 
      0.0555555555555556      0.1944444444444444      0.0000000000000000 
      0.0555555555555556      0.2222222222222222      0.0000000000000000 
      0.0555555555555556      0.2500000000000000      0.0000000000000000 
      0.0555555555555556      0.2777777777777778      0.0000000000000000 
      0.0555555555555556      0.3055555555555556      0.0000000000000000 
      0.0555555555555556      0.3333333333333333      0.0000000000000000 
      0.0555555555555556      0.3611111111111111      0.0000000000000000 
      0.0555555555555556      0.3888888888888889      0.0000000000000000 
      0.0555555555555556      0.4166666666666667      0.0000000000000000 
      0.0555555555555556      0.4444444444444444      0.0000000000000000 
      0.0555555555555556      0.4722222222222222      0.0000000000000000 
      0.0555555555555556      0.5000000000000000      0.0000000000000000 
      0.0555555555555556      0.5277777777777778      0.0000000000000000 
      0.0555555555555556      0.5555555555555556      0.0000000000000000 
      0.0555555555555556      0.5833333333333334      0.0000000000000000 
      0.0555555555555556      0.6111111111111112      0.0000000000000000 
      0.0555555555555556      0.6388888888888888      0.0000000000000000 
      0.0555555555555556      0.6666666666666666      0.0000000000000000 
      0.0555555555555556      0.6944444444444444      0.0000000000000000 
      0.0555555555555556      0.7222222222222222      0.0000000000000000 
      0.0555555555555556      0.7500000000000000      0.0000000000000000 
      0.0555555555555556      0.7777777777777778      0.0000000000000000 
      0.0555555555555556      0.8055555555555556      0.0000000000000000 
      0.0555555555555556      0.8333333333333334      0.0000000000000000 
      0.0555555555555556      0.8611111111111112      0.0000000000000000 
      0.0555555555555556      0.8888888888888888      0.0000000000000000 
      0.0555555555555556      0.9166666666666666      0.0000000000000000 
      0.0555555555555556      0.9444444444444444      0.0000000000000000 
      0.0555555555555556      0.9722222222222222      0.0000000000000000 
      0.0833333333333333      0.0000000000000000      0.0000000000000000 
      0.0833333333333333      0.0277777777777778      0.0000000000000000 
      0.0833333333333333      0.0555555555555556      0.0000000000000000 
      0.0833333333333333      0.0833333333333333      0.0000000000000000 
      0.0833333333333333      0.1111111111111111      0.0000000000000000 
      0.0833333333333333      0.1388888888888889      0.0000000000000000 
      0.0833333333333333      0.1666666666666667      0.0000000000000000 
      0.0833333333333333      0.1944444444444444      0.0000000000000000 
      0.0833333333333333      0.2222222222222222      0.0000000000000000 
      0.0833333333333333      0.2500000000000000      0.0000000000000000 
      0.0833333333333333      0.2777777777777778      0.0000000000000000 
      0.0833333333333333      0.3055555555555556      0.0000000000000000 
      0.0833333333333333      0.3333333333333333      0.0000000000000000 
      0.0833333333333333      0.3611111111111111      0.0000000000000000 
      0.0833333333333333      0.3888888888888889      0.0000000000000000 
      0.0833333333333333      0.4166666666666667      0.0000000000000000 
      0.0833333333333333      0.4444444444444444      0.0000000000000000 
      0.0833333333333333      0.4722222222222222      0.0000000000000000 
      0.0833333333333333      0.5000000000000000      0.0000000000000000 
      0.0833333333333333      0.5277777777777778      0.0000000000000000 
      0.0833333333333333      0.5555555555555556      0.0000000000000000 
      0.0833333333333333      0.5833333333333334      0.0000000000000000 
      0.0833333333333333      0.6111111111111112      0.0000000000000000 
      0.0833333333333333      0.6388888888888888      0.0000000000000000 
      0.0833333333333333      0.6666666666666666      0.0000000000000000 
      0.0833333333333333      0.6944444444444444      0.0000000000000000 
      0.0833333333333333      0.7222222222222222      0.0000000000000000 
      0.0833333333333333      0.7500000000000000      0.0000000000000000 
      0.0833333333333333      0.7777777777777778      0.0000000000000000 
      0.0833333333333333      0.8055555555555556      0.0000000000000000 
      0.0833333333333333      0.8333333333333334      0.0000000000000000 
      0.0833333333333333      0.8611111111111112      0.0000000000000000 
      0.0833333333333333      0.8888888888888888      0.0000000000000000 
      0.0833333333333333      0.9166666666666666      0.0000000000000000 
      0.0833333333333333      0.9444444444444444      0.0000000000000000 
      0.0833333333333333      0.9722222222222222      0.0000000000000000 
      0.1111111111111111      0.0000000000000000      0.0000000000000000 
      0.1111111111111111      0.0277777777777778      0.0000000000000000 
      0.1111111111111111      0.0555555555555556      0.0000000000000000 
      0.1111111111111111      0.0833333333333333      0.0000000000000000 
      0.1111111111111111      0.1111111111111111      0.0000000000000000 
      0.1111111111111111      0.1388888888888889      0.0000000000000000 
      0.1111111111111111      0.1666666666666667      0.0000000000000000 
      0.1111111111111111      0.1944444444444444      0.0000000000000000 
      0.1111111111111111      0.2222222222222222      0.0000000000000000 
      0.1111111111111111      0.2500000000000000      0.0000000000000000 
      0.1111111111111111      0.2777777777777778      0.0000000000000000 
      0.1111111111111111      0.3055555555555556      0.0000000000000000 
      0.1111111111111111      0.3333333333333333      0.0000000000000000 
      0.1111111111111111      0.3611111111111111      0.0000000000000000 
      0.1111111111111111      0.3888888888888889      0.0000000000000000 
      0.1111111111111111      0.4166666666666667      0.0000000000000000 
      0.1111111111111111      0.4444444444444444      0.0000000000000000 
      0.1111111111111111      0.4722222222222222      0.0000000000000000 
      0.1111111111111111      0.5000000000000000      0.0000000000000000 
      0.1111111111111111      0.5277777777777778      0.0000000000000000 
      0.1111111111111111      0.5555555555555556      0.0000000000000000 
      0.1111111111111111      0.5833333333333334      0.0000000000000000 
      0.1111111111111111      0.6111111111111112      0.0000000000000000 
      0.1111111111111111      0.6388888888888888      0.0000000000000000 
      0.1111111111111111      0.6666666666666666      0.0000000000000000 
      0.1111111111111111      0.6944444444444444      0.0000000000000000 
      0.1111111111111111      0.7222222222222222      0.0000000000000000 
      0.1111111111111111      0.7500000000000000      0.0000000000000000 
      0.1111111111111111      0.7777777777777778      0.0000000000000000 
      0.1111111111111111      0.8055555555555556      0.0000000000000000 
      0.1111111111111111      0.8333333333333334      0.0000000000000000 
      0.1111111111111111      0.8611111111111112      0.0000000000000000 
      0.1111111111111111      0.8888888888888888      0.0000000000000000 
      0.1111111111111111      0.9166666666666666      0.0000000000000000 
      0.1111111111111111      0.9444444444444444      0.0000000000000000 
      0.1111111111111111      0.9722222222222222      0.0000000000000000 
      0.1388888888888889      0.0000000000000000      0.0000000000000000 
      0.1388888888888889      0.0277777777777778      0.0000000000000000 
      0.1388888888888889      0.0555555555555556      0.0000000000000000 
      0.1388888888888889      0.0833333333333333      0.0000000000000000 
      0.1388888888888889      0.1111111111111111      0.0000000000000000 
      0.1388888888888889      0.1388888888888889      0.0000000000000000 
      0.1388888888888889      0.1666666666666667      0.0000000000000000 
      0.1388888888888889      0.1944444444444444      0.0000000000000000 
      0.1388888888888889      0.2222222222222222      0.0000000000000000 
      0.1388888888888889      0.2500000000000000      0.0000000000000000 
      0.1388888888888889      0.2777777777777778      0.0000000000000000 
      0.1388888888888889      0.3055555555555556      0.0000000000000000 
      0.1388888888888889      0.3333333333333333      0.0000000000000000 
      0.1388888888888889      0.3611111111111111      0.0000000000000000 
      0.1388888888888889      0.3888888888888889      0.0000000000000000 
      0.1388888888888889      0.4166666666666667      0.0000000000000000 
      0.1388888888888889      0.4444444444444444      0.0000000000000000 
      0.1388888888888889      0.4722222222222222      0.0000000000000000 
      0.1388888888888889      0.5000000000000000      0.0000000000000000 
      0.1388888888888889      0.5277777777777778      0.0000000000000000 
      0.1388888888888889      0.5555555555555556      0.0000000000000000 
      0.1388888888888889      0.5833333333333334      0.0000000000000000 
      0.1388888888888889      0.6111111111111112      0.0000000000000000 
      0.1388888888888889      0.6388888888888888      0.0000000000000000 
      0.1388888888888889      0.6666666666666666      0.0000000000000000 
      0.1388888888888889      0.6944444444444444      0.0000000000000000 
      0.1388888888888889      0.7222222222222222      0.0000000000000000 
      0.1388888888888889      0.7500000000000000      0.0000000000000000 
      0.1388888888888889      0.7777777777777778      0.0000000000000000 
      0.1388888888888889      0.8055555555555556      0.0000000000000000 
      0.1388888888888889      0.8333333333333334      0.0000000000000000 
      0.1388888888888889      0.8611111111111112      0.0000000000000000 
      0.1388888888888889      0.8888888888888888      0.0000000000000000 
      0.1388888888888889      0.9166666666666666      0.0000000000000000 
      0.1388888888888889      0.9444444444444444      0.0000000000000000 
      0.1388888888888889      0.9722222222222222      0.0000000000000000 
      0.1666666666666667      0.0000000000000000      0.0000000000000000 
      0.1666666666666667      0.0277777777777778      0.0000000000000000 
      0.1666666666666667      0.0555555555555556      0.0000000000000000 
      0.1666666666666667      0.0833333333333333      0.0000000000000000 
      0.1666666666666667      0.1111111111111111      0.0000000000000000 
      0.1666666666666667      0.1388888888888889      0.0000000000000000 
      0.1666666666666667      0.1666666666666667      0.0000000000000000 
      0.1666666666666667      0.1944444444444444      0.0000000000000000 
      0.1666666666666667      0.2222222222222222      0.0000000000000000 
      0.1666666666666667      0.2500000000000000      0.0000000000000000 
      0.1666666666666667      0.2777777777777778      0.0000000000000000 
      0.1666666666666667      0.3055555555555556      0.0000000000000000 
      0.1666666666666667      0.3333333333333333      0.0000000000000000 
      0.1666666666666667      0.3611111111111111      0.0000000000000000 
      0.1666666666666667      0.3888888888888889      0.0000000000000000 
      0.1666666666666667      0.4166666666666667      0.0000000000000000 
      0.1666666666666667      0.4444444444444444      0.0000000000000000 
      0.1666666666666667      0.4722222222222222      0.0000000000000000 
      0.1666666666666667      0.5000000000000000      0.0000000000000000 
      0.1666666666666667      0.5277777777777778      0.0000000000000000 
      0.1666666666666667      0.5555555555555556      0.0000000000000000 
      0.1666666666666667      0.5833333333333334      0.0000000000000000 
      0.1666666666666667      0.6111111111111112      0.0000000000000000 
      0.1666666666666667      0.6388888888888888      0.0000000000000000 
      0.1666666666666667      0.6666666666666666      0.0000000000000000 
      0.1666666666666667      0.6944444444444444      0.0000000000000000 
      0.1666666666666667      0.7222222222222222      0.0000000000000000 
      0.1666666666666667      0.7500000000000000      0.0000000000000000 
      0.1666666666666667      0.7777777777777778      0.0000000000000000 
      0.1666666666666667      0.8055555555555556      0.0000000000000000 
      0.1666666666666667      0.8333333333333334      0.0000000000000000 
      0.1666666666666667      0.8611111111111112      0.0000000000000000 
      0.1666666666666667      0.8888888888888888      0.0000000000000000 
      0.1666666666666667      0.9166666666666666      0.0000000000000000 
      0.1666666666666667      0.9444444444444444      0.0000000000000000 
      0.1666666666666667      0.9722222222222222      0.0000000000000000 
      0.1944444444444444      0.0000000000000000      0.0000000000000000 
      0.1944444444444444      0.0277777777777778      0.0000000000000000 
      0.1944444444444444      0.0555555555555556      0.0000000000000000 
      0.1944444444444444      0.0833333333333333      0.0000000000000000 
      0.1944444444444444      0.1111111111111111      0.0000000000000000 
      0.1944444444444444      0.1388888888888889      0.0000000000000000 
      0.1944444444444444      0.1666666666666667      0.0000000000000000 
      0.1944444444444444      0.1944444444444444      0.0000000000000000 
      0.1944444444444444      0.2222222222222222      0.0000000000000000 
      0.1944444444444444      0.2500000000000000      0.0000000000000000 
      0.1944444444444444      0.2777777777777778      0.0000000000000000 
      0.1944444444444444      0.3055555555555556      0.0000000000000000 
      0.1944444444444444      0.3333333333333333      0.0000000000000000 
      0.1944444444444444      0.3611111111111111      0.0000000000000000 
      0.1944444444444444      0.3888888888888889      0.0000000000000000 
      0.1944444444444444      0.4166666666666667      0.0000000000000000 
      0.1944444444444444      0.4444444444444444      0.0000000000000000 
      0.1944444444444444      0.4722222222222222      0.0000000000000000 
      0.1944444444444444      0.5000000000000000      0.0000000000000000 
      0.1944444444444444      0.5277777777777778      0.0000000000000000 
      0.1944444444444444      0.5555555555555556      0.0000000000000000 
      0.1944444444444444      0.5833333333333334      0.0000000000000000 
      0.1944444444444444      0.6111111111111112      0.0000000000000000 
      0.1944444444444444      0.6388888888888888      0.0000000000000000 
      0.1944444444444444      0.6666666666666666      0.0000000000000000 
      0.1944444444444444      0.6944444444444444      0.0000000000000000 
      0.1944444444444444      0.7222222222222222      0.0000000000000000 
      0.1944444444444444      0.7500000000000000      0.0000000000000000 
      0.1944444444444444      0.7777777777777778      0.0000000000000000 
      0.1944444444444444      0.8055555555555556      0.0000000000000000 
      0.1944444444444444      0.8333333333333334      0.0000000000000000 
      0.1944444444444444      0.8611111111111112      0.0000000000000000 
      0.1944444444444444      0.8888888888888888      0.0000000000000000 
      0.1944444444444444      0.9166666666666666      0.0000000000000000 
      0.1944444444444444      0.9444444444444444      0.0000000000000000 
      0.1944444444444444      0.9722222222222222      0.0000000000000000 
      0.2222222222222222      0.0000000000000000      0.0000000000000000 
      0.2222222222222222      0.0277777777777778      0.0000000000000000 
      0.2222222222222222      0.0555555555555556      0.0000000000000000 
      0.2222222222222222      0.0833333333333333      0.0000000000000000 
      0.2222222222222222      0.1111111111111111      0.0000000000000000 
      0.2222222222222222      0.1388888888888889      0.0000000000000000 
      0.2222222222222222      0.1666666666666667      0.0000000000000000 
      0.2222222222222222      0.1944444444444444      0.0000000000000000 
      0.2222222222222222      0.2222222222222222      0.0000000000000000 
      0.2222222222222222      0.2500000000000000      0.0000000000000000 
      0.2222222222222222      0.2777777777777778      0.0000000000000000 
      0.2222222222222222      0.3055555555555556      0.0000000000000000 
      0.2222222222222222      0.3333333333333333      0.0000000000000000 
      0.2222222222222222      0.3611111111111111      0.0000000000000000 
      0.2222222222222222      0.3888888888888889      0.0000000000000000 
      0.2222222222222222      0.4166666666666667      0.0000000000000000 
      0.2222222222222222      0.4444444444444444      0.0000000000000000 
      0.2222222222222222      0.4722222222222222      0.0000000000000000 
      0.2222222222222222      0.5000000000000000      0.0000000000000000 
      0.2222222222222222      0.5277777777777778      0.0000000000000000 
      0.2222222222222222      0.5555555555555556      0.0000000000000000 
      0.2222222222222222      0.5833333333333334      0.0000000000000000 
      0.2222222222222222      0.6111111111111112      0.0000000000000000 
      0.2222222222222222      0.6388888888888888      0.0000000000000000 
      0.2222222222222222      0.6666666666666666      0.0000000000000000 
      0.2222222222222222      0.6944444444444444      0.0000000000000000 
      0.2222222222222222      0.7222222222222222      0.0000000000000000 
      0.2222222222222222      0.7500000000000000      0.0000000000000000 
      0.2222222222222222      0.7777777777777778      0.0000000000000000 
      0.2222222222222222      0.8055555555555556      0.0000000000000000 
      0.2222222222222222      0.8333333333333334      0.0000000000000000 
      0.2222222222222222      0.8611111111111112      0.0000000000000000 
      0.2222222222222222      0.8888888888888888      0.0000000000000000 
      0.2222222222222222      0.9166666666666666      0.0000000000000000 
      0.2222222222222222      0.9444444444444444      0.0000000000000000 
      0.2222222222222222      0.9722222222222222      0.0000000000000000 
      0.2500000000000000      0.0000000000000000      0.0000000000000000 
      0.2500000000000000      0.0277777777777778      0.0000000000000000 
      0.2500000000000000      0.0555555555555556      0.0000000000000000 
      0.2500000000000000      0.0833333333333333      0.0000000000000000 
      0.2500000000000000      0.1111111111111111      0.0000000000000000 
      0.2500000000000000      0.1388888888888889      0.0000000000000000 
      0.2500000000000000      0.1666666666666667      0.0000000000000000 
      0.2500000000000000      0.1944444444444444      0.0000000000000000 
      0.2500000000000000      0.2222222222222222      0.0000000000000000 
      0.2500000000000000      0.2500000000000000      0.0000000000000000 
      0.2500000000000000      0.2777777777777778      0.0000000000000000 
      0.2500000000000000      0.3055555555555556      0.0000000000000000 
      0.2500000000000000      0.3333333333333333      0.0000000000000000 
      0.2500000000000000      0.3611111111111111      0.0000000000000000 
      0.2500000000000000      0.3888888888888889      0.0000000000000000 
      0.2500000000000000      0.4166666666666667      0.0000000000000000 
      0.2500000000000000      0.4444444444444444      0.0000000000000000 
      0.2500000000000000      0.4722222222222222      0.0000000000000000 
      0.2500000000000000      0.5000000000000000      0.0000000000000000 
      0.2500000000000000      0.5277777777777778      0.0000000000000000 
      0.2500000000000000      0.5555555555555556      0.0000000000000000 
      0.2500000000000000      0.5833333333333334      0.0000000000000000 
      0.2500000000000000      0.6111111111111112      0.0000000000000000 
      0.2500000000000000      0.6388888888888888      0.0000000000000000 
      0.2500000000000000      0.6666666666666666      0.0000000000000000 
      0.2500000000000000      0.6944444444444444      0.0000000000000000 
      0.2500000000000000      0.7222222222222222      0.0000000000000000 
      0.2500000000000000      0.7500000000000000      0.0000000000000000 
      0.2500000000000000      0.7777777777777778      0.0000000000000000 
      0.2500000000000000      0.8055555555555556      0.0000000000000000 
      0.2500000000000000      0.8333333333333334      0.0000000000000000 
      0.2500000000000000      0.8611111111111112      0.0000000000000000 
      0.2500000000000000      0.8888888888888888      0.0000000000000000 
      0.2500000000000000      0.9166666666666666      0.0000000000000000 
      0.2500000000000000      0.9444444444444444      0.0000000000000000 
      0.2500000000000000      0.9722222222222222      0.0000000000000000 
      0.2777777777777778      0.0000000000000000      0.0000000000000000 
      0.2777777777777778      0.0277777777777778      0.0000000000000000 
      0.2777777777777778      0.0555555555555556      0.0000000000000000 
      0.2777777777777778      0.0833333333333333      0.0000000000000000 
      0.2777777777777778      0.1111111111111111      0.0000000000000000 
      0.2777777777777778      0.1388888888888889      0.0000000000000000 
      0.2777777777777778      0.1666666666666667      0.0000000000000000 
      0.2777777777777778      0.1944444444444444      0.0000000000000000 
      0.2777777777777778      0.2222222222222222      0.0000000000000000 
      0.2777777777777778      0.2500000000000000      0.0000000000000000 
      0.2777777777777778      0.2777777777777778      0.0000000000000000 
      0.2777777777777778      0.3055555555555556      0.0000000000000000 
      0.2777777777777778      0.3333333333333333      0.0000000000000000 
      0.2777777777777778      0.3611111111111111      0.0000000000000000 
      0.2777777777777778      0.3888888888888889      0.0000000000000000 
      0.2777777777777778      0.4166666666666667      0.0000000000000000 
      0.2777777777777778      0.4444444444444444      0.0000000000000000 
      0.2777777777777778      0.4722222222222222      0.0000000000000000 
      0.2777777777777778      0.5000000000000000      0.0000000000000000 
      0.2777777777777778      0.5277777777777778      0.0000000000000000 
      0.2777777777777778      0.5555555555555556      0.0000000000000000 
      0.2777777777777778      0.5833333333333334      0.0000000000000000 
      0.2777777777777778      0.6111111111111112      0.0000000000000000 
      0.2777777777777778      0.6388888888888888      0.0000000000000000 
      0.2777777777777778      0.6666666666666666      0.0000000000000000 
      0.2777777777777778      0.6944444444444444      0.0000000000000000 
      0.2777777777777778      0.7222222222222222      0.0000000000000000 
      0.2777777777777778      0.7500000000000000      0.0000000000000000 
      0.2777777777777778      0.7777777777777778      0.0000000000000000 
      0.2777777777777778      0.8055555555555556      0.0000000000000000 
      0.2777777777777778      0.8333333333333334      0.0000000000000000 
      0.2777777777777778      0.8611111111111112      0.0000000000000000 