&inputpp
  outdir='./tmp/'
  prefix = 'graphene'
  seedname = 'graphene'
  write_mmn = .true.
  write_amn = .true.
  !write_unk = .true.
  !reduce_unk= .true.
  !write_spn = .true.
  !spn_formatted = .false.
/
