qe2pert
&qe2pert
  prefix='graphene'
  outdir='./tmp'
  phdir='../pw-ph-wann/phonon/save'
  nk1=36, nk2=36, nk3=1
  dft_band_min = 1
  dft_band_max = 11
  num_wann = 2
  lwannier = .true.
  system_2d = .true.
/
