&control
 prefix='graphene'
 calculation='nscf'
 pseudo_dir = '../pseudo'
 outdir='./tmp'
 verbosity = 'high'
/
&system
 assume_isolated='2D'
 ibrav = 4
 a = 2.46 !2.461976
 c = 12
 nat= 2
 ntyp= 1
 nbnd = 11
 ecutwfc = 90
 occupations='smearing'
 degauss = 0.02
/
&electrons
 diagonalization='david'
 conv_thr = 3.0d-11 !passed 1.0d-12 failed 3.0d-13
 diago_full_acc = .true.
/
&cell
    press_conv_thr = 0.0001
    cell_dofree=2Dxy
/
ATOMIC_SPECIES
 C  12.01078 C_DOJO_LDA.upf
ATOMIC_POSITIONS crystal
 C        0.0000000000000000   0.0000000000000000   0.000000000      0 0 0
 C        0.3333333333333333   0.6666666666666667   0.000000000      0 0 0
K_POINTS crystal
1296
      0.0000000000000000      0.0000000000000000      0.0000000000000000  7.716049e-04 
      0.0000000000000000      0.0277777777777778      0.0000000000000000  7.716049e-04 
      0.0000000000000000      0.0555555555555556      0.0000000000000000  7.716049e-04 
      0.0000000000000000      0.0833333333333333      0.0000000000000000  7.716049e-04 
      0.0000000000000000      0.1111111111111111      0.0000000000000000  7.716049e-04 
      0.0000000000000000      0.1388888888888889      0.0000000000000000  7.716049e-04 
      0.0000000000000000      0.1666666666666667      0.0000000000000000  7.716049e-04 
      0.0000000000000000      0.1944444444444444      0.0000000000000000  7.716049e-04 
      0.0000000000000000      0.2222222222222222      0.0000000000000000  7.716049e-04 
      0.0000000000000000      0.2500000000000000      0.0000000000000000  7.716049e-04 
      0.0000000000000000      0.2777777777777778      0.0000000000000000  7.716049e-04 
      0.0000000000000000      0.3055555555555556      0.0000000000000000  7.716049e-04 
      0.0000000000000000      0.3333333333333333      0.0000000000000000  7.716049e-04 
      0.0000000000000000      0.3611111111111111      0.0000000000000000  7.716049e-04 
      0.0000000000000000      0.3888888888888889      0.0000000000000000  7.716049e-04 
      0.0000000000000000      0.4166666666666667      0.0000000000000000  7.716049e-04 
      0.0000000000000000      0.4444444444444444      0.0000000000000000  7.716049e-04 
      0.0000000000000000      0.4722222222222222      0.0000000000000000  7.716049e-04 
      0.0000000000000000      0.5000000000000000      0.0000000000000000  7.716049e-04 
      0.0000000000000000      0.5277777777777778      0.0000000000000000  7.716049e-04 
      0.0000000000000000      0.5555555555555556      0.0000000000000000  7.716049e-04 
      0.0000000000000000      0.5833333333333334      0.0000000000000000  7.716049e-04 
      0.0000000000000000      0.6111111111111112      0.0000000000000000  7.716049e-04 
      0.0000000000000000      0.6388888888888888      0.0000000000000000  7.716049e-04 
      0.0000000000000000      0.6666666666666666      0.0000000000000000  7.716049e-04 
      0.0000000000000000      0.6944444444444444      0.0000000000000000  7.716049e-04 
      0.0000000000000000      0.7222222222222222      0.0000000000000000  7.716049e-04 
      0.0000000000000000      0.7500000000000000      0.0000000000000000  7.716049e-04 
      0.0000000000000000      0.7777777777777778      0.0000000000000000  7.716049e-04 
      0.0000000000000000      0.8055555555555556      0.0000000000000000  7.716049e-04 
      0.0000000000000000      0.8333333333333334      0.0000000000000000  7.716049e-04 
      0.0000000000000000      0.8611111111111112      0.0000000000000000  7.716049e-04 
      0.0000000000000000      0.8888888888888888      0.0000000000000000  7.716049e-04 
      0.0000000000000000      0.9166666666666666      0.0000000000000000  7.716049e-04 
      0.0000000000000000      0.9444444444444444      0.0000000000000000  7.716049e-04 
      0.0000000000000000      0.9722222222222222      0.0000000000000000  7.716049e-04 
      0.0277777777777778      0.0000000000000000      0.0000000000000000  7.716049e-04 
      0.0277777777777778      0.0277777777777778      0.0000000000000000  7.716049e-04 
      0.0277777777777778      0.0555555555555556      0.0000000000000000  7.716049e-04 
      0.0277777777777778      0.0833333333333333      0.0000000000000000  7.716049e-04 
      0.0277777777777778      0.1111111111111111      0.0000000000000000  7.716049e-04 
      0.0277777777777778      0.1388888888888889      0.0000000000000000  7.716049e-04 
      0.0277777777777778      0.1666666666666667      0.0000000000000000  7.716049e-04 
      0.0277777777777778      0.1944444444444444      0.0000000000000000  7.716049e-04 
      0.0277777777777778      0.2222222222222222      0.0000000000000000  7.716049e-04 
      0.0277777777777778      0.2500000000000000      0.0000000000000000  7.716049e-04 
      0.0277777777777778      0.2777777777777778      0.0000000000000000  7.716049e-04 
      0.0277777777777778      0.3055555555555556      0.0000000000000000  7.716049e-04 
      0.0277777777777778      0.3333333333333333      0.0000000000000000  7.716049e-04 
      0.0277777777777778      0.3611111111111111      0.0000000000000000  7.716049e-04 
      0.0277777777777778      0.3888888888888889      0.0000000000000000  7.716049e-04 
      0.0277777777777778      0.4166666666666667      0.0000000000000000  7.716049e-04 
      0.0277777777777778      0.4444444444444444      0.0000000000000000  7.716049e-04 
      0.0277777777777778      0.4722222222222222      0.0000000000000000  7.716049e-04 
      0.0277777777777778      0.5000000000000000      0.0000000000000000  7.716049e-04 
      0.0277777777777778      0.5277777777777778      0.0000000000000000  7.716049e-04 
      0.0277777777777778      0.5555555555555556      0.0000000000000000  7.716049e-04 
      0.0277777777777778      0.5833333333333334      0.0000000000000000  7.716049e-04 
      0.0277777777777778      0.6111111111111112      0.0000000000000000  7.716049e-04 
      0.0277777777777778      0.6388888888888888      0.0000000000000000  7.716049e-04 
      0.0277777777777778      0.6666666666666666      0.0000000000000000  7.716049e-04 
      0.0277777777777778      0.6944444444444444      0.0000000000000000  7.716049e-04 
      0.0277777777777778      0.7222222222222222      0.0000000000000000  7.716049e-04 
      0.0277777777777778      0.7500000000000000      0.0000000000000000  7.716049e-04 
      0.0277777777777778      0.7777777777777778      0.0000000000000000  7.716049e-04 
      0.0277777777777778      0.8055555555555556      0.0000000000000000  7.716049e-04 
      0.0277777777777778      0.8333333333333334      0.0000000000000000  7.716049e-04 
      0.0277777777777778      0.8611111111111112      0.0000000000000000  7.716049e-04 
      0.0277777777777778      0.8888888888888888      0.0000000000000000  7.716049e-04 
      0.0277777777777778      0.9166666666666666      0.0000000000000000  7.716049e-04 
      0.0277777777777778      0.9444444444444444      0.0000000000000000  7.716049e-04 
      0.0277777777777778      0.9722222222222222      0.0000000000000000  7.716049e-04 
      0.0555555555555556      0.0000000000000000      0.0000000000000000  7.716049e-04 
      0.0555555555555556      0.0277777777777778      0.0000000000000000  7.716049e-04 
      0.0555555555555556      0.0555555555555556      0.0000000000000000  7.716049e-04 
      0.0555555555555556      0.0833333333333333      0.0000000000000000  7.716049e-04 
      0.0555555555555556      0.1111111111111111      0.0000000000000000  7.716049e-04 
      0.0555555555555556      0.1388888888888889      0.0000000000000000  7.716049e-04 
      0.0555555555555556      0.1666666666666667      0.0000000000000000  7.716049e-04 
      0.0555555555555556      0.1944444444444444      0.0000000000000000  7.716049e-04 
      0.0555555555555556      0.2222222222222222      0.0000000000000000  7.716049e-04 
      0.0555555555555556      0.2500000000000000      0.0000000000000000  7.716049e-04 
      0.0555555555555556      0.2777777777777778      0.0000000000000000  7.716049e-04 
      0.0555555555555556      0.3055555555555556      0.0000000000000000  7.716049e-04 
      0.0555555555555556      0.3333333333333333      0.0000000000000000  7.716049e-04 
      0.0555555555555556      0.3611111111111111      0.0000000000000000  7.716049e-04 
      0.0555555555555556      0.3888888888888889      0.0000000000000000  7.716049e-04 
      0.0555555555555556      0.4166666666666667      0.0000000000000000  7.716049e-04 
      0.0555555555555556      0.4444444444444444      0.0000000000000000  7.716049e-04 
      0.0555555555555556      0.4722222222222222      0.0000000000000000  7.716049e-04 
      0.0555555555555556      0.5000000000000000      0.0000000000000000  7.716049e-04 
      0.0555555555555556      0.5277777777777778      0.0000000000000000  7.716049e-04 
      0.0555555555555556      0.5555555555555556      0.0000000000000000  7.716049e-04 
      0.0555555555555556      0.5833333333333334      0.0000000000000000  7.716049e-04 
      0.0555555555555556      0.6111111111111112      0.0000000000000000  7.716049e-04 
      0.0555555555555556      0.6388888888888888      0.0000000000000000  7.716049e-04 
      0.0555555555555556      0.6666666666666666      0.0000000000000000  7.716049e-04 
      0.0555555555555556      0.6944444444444444      0.0000000000000000  7.716049e-04 
      0.0555555555555556      0.7222222222222222      0.0000000000000000  7.716049e-04 
      0.0555555555555556      0.7500000000000000      0.0000000000000000  7.716049e-04 
      0.0555555555555556      0.7777777777777778      0.0000000000000000  7.716049e-04 
      0.0555555555555556      0.8055555555555556      0.0000000000000000  7.716049e-04 
      0.0555555555555556      0.8333333333333334      0.0000000000000000  7.716049e-04 
      0.0555555555555556      0.8611111111111112      0.0000000000000000  7.716049e-04 
      0.0555555555555556      0.8888888888888888      0.0000000000000000  7.716049e-04 
      0.0555555555555556      0.9166666666666666      0.0000000000000000  7.716049e-04 
      0.0555555555555556      0.9444444444444444      0.0000000000000000  7.716049e-04 
      0.0555555555555556      0.9722222222222222      0.0000000000000000  7.716049e-04 
      0.0833333333333333      0.0000000000000000      0.0000000000000000  7.716049e-04 
      0.0833333333333333      0.0277777777777778      0.0000000000000000  7.716049e-04 
      0.0833333333333333      0.0555555555555556      0.0000000000000000  7.716049e-04 
      0.0833333333333333      0.0833333333333333      0.0000000000000000  7.716049e-04 
      0.0833333333333333      0.1111111111111111      0.0000000000000000  7.716049e-04 
      0.0833333333333333      0.1388888888888889      0.0000000000000000  7.716049e-04 
      0.0833333333333333      0.1666666666666667      0.0000000000000000  7.716049e-04 
      0.0833333333333333      0.1944444444444444      0.0000000000000000  7.716049e-04 
      0.0833333333333333      0.2222222222222222      0.0000000000000000  7.716049e-04 
      0.0833333333333333      0.2500000000000000      0.0000000000000000  7.716049e-04 
      0.0833333333333333      0.2777777777777778      0.0000000000000000  7.716049e-04 
      0.0833333333333333      0.3055555555555556      0.0000000000000000  7.716049e-04 
      0.0833333333333333      0.3333333333333333      0.0000000000000000  7.716049e-04 
      0.0833333333333333      0.3611111111111111      0.0000000000000000  7.716049e-04 
      0.0833333333333333      0.3888888888888889      0.0000000000000000  7.716049e-04 
      0.0833333333333333      0.4166666666666667      0.0000000000000000  7.716049e-04 
      0.0833333333333333      0.4444444444444444      0.0000000000000000  7.716049e-04 
      0.0833333333333333      0.4722222222222222      0.0000000000000000  7.716049e-04 
      0.0833333333333333      0.5000000000000000      0.0000000000000000  7.716049e-04 
      0.0833333333333333      0.5277777777777778      0.0000000000000000  7.716049e-04 
      0.0833333333333333      0.5555555555555556      0.0000000000000000  7.716049e-04 
      0.0833333333333333      0.5833333333333334      0.0000000000000000  7.716049e-04 
      0.0833333333333333      0.6111111111111112      0.0000000000000000  7.716049e-04 
      0.0833333333333333      0.6388888888888888      0.0000000000000000  7.716049e-04 
      0.0833333333333333      0.6666666666666666      0.0000000000000000  7.716049e-04 
      0.0833333333333333      0.6944444444444444      0.0000000000000000  7.716049e-04 
      0.0833333333333333      0.7222222222222222      0.0000000000000000  7.716049e-04 
      0.0833333333333333      0.7500000000000000      0.0000000000000000  7.716049e-04 
      0.0833333333333333      0.7777777777777778      0.0000000000000000  7.716049e-04 
      0.0833333333333333      0.8055555555555556      0.0000000000000000  7.716049e-04 
      0.0833333333333333      0.8333333333333334      0.0000000000000000  7.716049e-04 
      0.0833333333333333      0.8611111111111112      0.0000000000000000  7.716049e-04 
      0.0833333333333333      0.8888888888888888      0.0000000000000000  7.716049e-04 
      0.0833333333333333      0.9166666666666666      0.0000000000000000  7.716049e-04 
      0.0833333333333333      0.9444444444444444      0.0000000000000000  7.716049e-04 
      0.0833333333333333      0.9722222222222222      0.0000000000000000  7.716049e-04 
      0.1111111111111111      0.0000000000000000      0.0000000000000000  7.716049e-04 
      0.1111111111111111      0.0277777777777778      0.0000000000000000  7.716049e-04 
      0.1111111111111111      0.0555555555555556      0.0000000000000000  7.716049e-04 
      0.1111111111111111      0.0833333333333333      0.0000000000000000  7.716049e-04 
      0.1111111111111111      0.1111111111111111      0.0000000000000000  7.716049e-04 
      0.1111111111111111      0.1388888888888889      0.0000000000000000  7.716049e-04 
      0.1111111111111111      0.1666666666666667      0.0000000000000000  7.716049e-04 
      0.1111111111111111      0.1944444444444444      0.0000000000000000  7.716049e-04 
      0.1111111111111111      0.2222222222222222      0.0000000000000000  7.716049e-04 
      0.1111111111111111      0.2500000000000000      0.0000000000000000  7.716049e-04 
      0.1111111111111111      0.2777777777777778      0.0000000000000000  7.716049e-04 
      0.1111111111111111      0.3055555555555556      0.0000000000000000  7.716049e-04 
      0.1111111111111111      0.3333333333333333      0.0000000000000000  7.716049e-04 
      0.1111111111111111      0.3611111111111111      0.0000000000000000  7.716049e-04 
      0.1111111111111111      0.3888888888888889      0.0000000000000000  7.716049e-04 
      0.1111111111111111      0.4166666666666667      0.0000000000000000  7.716049e-04 
      0.1111111111111111      0.4444444444444444      0.0000000000000000  7.716049e-04 
      0.1111111111111111      0.4722222222222222      0.0000000000000000  7.716049e-04 
      0.1111111111111111      0.5000000000000000      0.0000000000000000  7.716049e-04 
      0.1111111111111111      0.5277777777777778      0.0000000000000000  7.716049e-04 
      0.1111111111111111      0.5555555555555556      0.0000000000000000  7.716049e-04 
      0.1111111111111111      0.5833333333333334      0.0000000000000000  7.716049e-04 
      0.1111111111111111      0.6111111111111112      0.0000000000000000  7.716049e-04 
      0.1111111111111111      0.6388888888888888      0.0000000000000000  7.716049e-04 
      0.1111111111111111      0.6666666666666666      0.0000000000000000  7.716049e-04 
      0.1111111111111111      0.6944444444444444      0.0000000000000000  7.716049e-04 
      0.1111111111111111      0.7222222222222222      0.0000000000000000  7.716049e-04 
      0.1111111111111111      0.7500000000000000      0.0000000000000000  7.716049e-04 
      0.1111111111111111      0.7777777777777778      0.0000000000000000  7.716049e-04 
      0.1111111111111111      0.8055555555555556      0.0000000000000000  7.716049e-04 
      0.1111111111111111      0.8333333333333334      0.0000000000000000  7.716049e-04 
      0.1111111111111111      0.8611111111111112      0.0000000000000000  7.716049e-04 
      0.1111111111111111      0.8888888888888888      0.0000000000000000  7.716049e-04 
      0.1111111111111111      0.9166666666666666      0.0000000000000000  7.716049e-04 
      0.1111111111111111      0.9444444444444444      0.0000000000000000  7.716049e-04 
      0.1111111111111111      0.9722222222222222      0.0000000000000000  7.716049e-04 
      0.1388888888888889      0.0000000000000000      0.0000000000000000  7.716049e-04 
      0.1388888888888889      0.0277777777777778      0.0000000000000000  7.716049e-04 
      0.1388888888888889      0.0555555555555556      0.0000000000000000  7.716049e-04 
      0.1388888888888889      0.0833333333333333      0.0000000000000000  7.716049e-04 
      0.1388888888888889      0.1111111111111111      0.0000000000000000  7.716049e-04 
      0.1388888888888889      0.1388888888888889      0.0000000000000000  7.716049e-04 
      0.1388888888888889      0.1666666666666667      0.0000000000000000  7.716049e-04 
      0.1388888888888889      0.1944444444444444      0.0000000000000000  7.716049e-04 
      0.1388888888888889      0.2222222222222222      0.0000000000000000  7.716049e-04 
      0.1388888888888889      0.2500000000000000      0.0000000000000000  7.716049e-04 
      0.1388888888888889      0.2777777777777778      0.0000000000000000  7.716049e-04 
      0.1388888888888889      0.3055555555555556      0.0000000000000000  7.716049e-04 
      0.1388888888888889      0.3333333333333333      0.0000000000000000  7.716049e-04 
      0.1388888888888889      0.3611111111111111      0.0000000000000000  7.716049e-04 
      0.1388888888888889      0.3888888888888889      0.0000000000000000  7.716049e-04 
      0.1388888888888889      0.4166666666666667      0.0000000000000000  7.716049e-04 
      0.1388888888888889      0.4444444444444444      0.0000000000000000  7.716049e-04 
      0.1388888888888889      0.4722222222222222      0.0000000000000000  7.716049e-04 
      0.1388888888888889      0.5000000000000000      0.0000000000000000  7.716049e-04 
      0.1388888888888889      0.5277777777777778      0.0000000000000000  7.716049e-04 
      0.1388888888888889      0.5555555555555556      0.0000000000000000  7.716049e-04 
      0.1388888888888889      0.5833333333333334      0.0000000000000000  7.716049e-04 
      0.1388888888888889      0.6111111111111112      0.0000000000000000  7.716049e-04 
      0.1388888888888889      0.6388888888888888      0.0000000000000000  7.716049e-04 
      0.1388888888888889      0.6666666666666666      0.0000000000000000  7.716049e-04 
      0.1388888888888889      0.6944444444444444      0.0000000000000000  7.716049e-04 
      0.1388888888888889      0.7222222222222222      0.0000000000000000  7.716049e-04 
      0.1388888888888889      0.7500000000000000      0.0000000000000000  7.716049e-04 
      0.1388888888888889      0.7777777777777778      0.0000000000000000  7.716049e-04 
      0.1388888888888889      0.8055555555555556      0.0000000000000000  7.716049e-04 
      0.1388888888888889      0.8333333333333334      0.0000000000000000  7.716049e-04 
      0.1388888888888889      0.8611111111111112      0.0000000000000000  7.716049e-04 
      0.1388888888888889      0.8888888888888888      0.0000000000000000  7.716049e-04 
      0.1388888888888889      0.9166666666666666      0.0000000000000000  7.716049e-04 
      0.1388888888888889      0.9444444444444444      0.0000000000000000  7.716049e-04 
      0.1388888888888889      0.9722222222222222      0.0000000000000000  7.716049e-04 
      0.1666666666666667      0.0000000000000000      0.0000000000000000  7.716049e-04 
      0.1666666666666667      0.0277777777777778      0.0000000000000000  7.716049e-04 
      0.1666666666666667      0.0555555555555556      0.0000000000000000  7.716049e-04 
      0.1666666666666667      0.0833333333333333      0.0000000000000000  7.716049e-04 
      0.1666666666666667      0.1111111111111111      0.0000000000000000  7.716049e-04 
      0.1666666666666667      0.1388888888888889      0.0000000000000000  7.716049e-04 
      0.1666666666666667      0.1666666666666667      0.0000000000000000  7.716049e-04 
      0.1666666666666667      0.1944444444444444      0.0000000000000000  7.716049e-04 
      0.1666666666666667      0.2222222222222222      0.0000000000000000  7.716049e-04 
      0.1666666666666667      0.2500000000000000      0.0000000000000000  7.716049e-04 
      0.1666666666666667      0.2777777777777778      0.0000000000000000  7.716049e-04 
      0.1666666666666667      0.3055555555555556      0.0000000000000000  7.716049e-04 
      0.1666666666666667      0.3333333333333333      0.0000000000000000  7.716049e-04 
      0.1666666666666667      0.3611111111111111      0.0000000000000000  7.716049e-04 
      0.1666666666666667      0.3888888888888889      0.0000000000000000  7.716049e-04 
      0.1666666666666667      0.4166666666666667      0.0000000000000000  7.716049e-04 
      0.1666666666666667      0.4444444444444444      0.0000000000000000  7.716049e-04 
      0.1666666666666667      0.4722222222222222      0.0000000000000000  7.716049e-04 
      0.1666666666666667      0.5000000000000000      0.0000000000000000  7.716049e-04 
      0.1666666666666667      0.5277777777777778      0.0000000000000000  7.716049e-04 
      0.1666666666666667      0.5555555555555556      0.0000000000000000  7.716049e-04 
      0.1666666666666667      0.5833333333333334      0.0000000000000000  7.716049e-04 
      0.1666666666666667      0.6111111111111112      0.0000000000000000  7.716049e-04 
      0.1666666666666667      0.6388888888888888      0.0000000000000000  7.716049e-04 
      0.1666666666666667      0.6666666666666666      0.0000000000000000  7.716049e-04 
      0.1666666666666667      0.6944444444444444      0.0000000000000000  7.716049e-04 
      0.1666666666666667      0.7222222222222222      0.0000000000000000  7.716049e-04 
      0.1666666666666667      0.7500000000000000      0.0000000000000000  7.716049e-04 
      0.1666666666666667      0.7777777777777778      0.0000000000000000  7.716049e-04 
      0.1666666666666667      0.8055555555555556      0.0000000000000000  7.716049e-04 
      0.1666666666666667      0.8333333333333334      0.0000000000000000  7.716049e-04 
      0.1666666666666667      0.8611111111111112      0.0000000000000000  7.716049e-04 
      0.1666666666666667      0.8888888888888888      0.0000000000000000  7.716049e-04 
      0.1666666666666667      0.9166666666666666      0.0000000000000000  7.716049e-04 
      0.1666666666666667      0.9444444444444444      0.0000000000000000  7.716049e-04 
      0.1666666666666667      0.9722222222222222      0.0000000000000000  7.716049e-04 
      0.1944444444444444      0.0000000000000000      0.0000000000000000  7.716049e-04 
      0.1944444444444444      0.0277777777777778      0.0000000000000000  7.716049e-04 
      0.1944444444444444      0.0555555555555556      0.0000000000000000  7.716049e-04 
      0.1944444444444444      0.0833333333333333      0.0000000000000000  7.716049e-04 
      0.1944444444444444      0.1111111111111111      0.0000000000000000  7.716049e-04 
      0.1944444444444444      0.1388888888888889      0.0000000000000000  7.716049e-04 
      0.1944444444444444      0.1666666666666667      0.0000000000000000  7.716049e-04 
      0.1944444444444444      0.1944444444444444      0.0000000000000000  7.716049e-04 
      0.1944444444444444      0.2222222222222222      0.0000000000000000  7.716049e-04 
      0.1944444444444444      0.2500000000000000      0.0000000000000000  7.716049e-04 
      0.1944444444444444      0.2777777777777778      0.0000000000000000  7.716049e-04 
      0.1944444444444444      0.3055555555555556      0.0000000000000000  7.716049e-04 
      0.1944444444444444      0.3333333333333333      0.0000000000000000  7.716049e-04 
      0.1944444444444444      0.3611111111111111      0.0000000000000000  7.716049e-04 
      0.1944444444444444      0.3888888888888889      0.0000000000000000  7.716049e-04 
      0.1944444444444444      0.4166666666666667      0.0000000000000000  7.716049e-04 
      0.1944444444444444      0.4444444444444444      0.0000000000000000  7.716049e-04 
      0.1944444444444444      0.4722222222222222      0.0000000000000000  7.716049e-04 
      0.1944444444444444      0.5000000000000000      0.0000000000000000  7.716049e-04 
      0.1944444444444444      0.5277777777777778      0.0000000000000000  7.716049e-04 
      0.1944444444444444      0.5555555555555556      0.0000000000000000  7.716049e-04 
      0.1944444444444444      0.5833333333333334      0.0000000000000000  7.716049e-04 
      0.1944444444444444      0.6111111111111112      0.0000000000000000  7.716049e-04 
      0.1944444444444444      0.6388888888888888      0.0000000000000000  7.716049e-04 
      0.1944444444444444      0.6666666666666666      0.0000000000000000  7.716049e-04 
      0.1944444444444444      0.6944444444444444      0.0000000000000000  7.716049e-04 
      0.1944444444444444      0.7222222222222222      0.0000000000000000  7.716049e-04 
      0.1944444444444444      0.7500000000000000      0.0000000000000000  7.716049e-04 
      0.1944444444444444      0.7777777777777778      0.0000000000000000  7.716049e-04 
      0.1944444444444444      0.8055555555555556      0.0000000000000000  7.716049e-04 
      0.1944444444444444      0.8333333333333334      0.0000000000000000  7.716049e-04 
      0.1944444444444444      0.8611111111111112      0.0000000000000000  7.716049e-04 
      0.1944444444444444      0.8888888888888888      0.0000000000000000  7.716049e-04 
      0.1944444444444444      0.9166666666666666      0.0000000000000000  7.716049e-04 
      0.1944444444444444      0.9444444444444444      0.0000000000000000  7.716049e-04 
      0.1944444444444444      0.9722222222222222      0.0000000000000000  7.716049e-04 
      0.2222222222222222      0.0000000000000000      0.0000000000000000  7.716049e-04 
      0.2222222222222222      0.0277777777777778      0.0000000000000000  7.716049e-04 
      0.2222222222222222      0.0555555555555556      0.0000000000000000  7.716049e-04 
      0.2222222222222222      0.0833333333333333      0.0000000000000000  7.716049e-04 
      0.2222222222222222      0.1111111111111111      0.0000000000000000  7.716049e-04 
      0.2222222222222222      0.1388888888888889      0.0000000000000000  7.716049e-04 
      0.2222222222222222      0.1666666666666667      0.0000000000000000  7.716049e-04 
      0.2222222222222222      0.1944444444444444      0.0000000000000000  7.716049e-04 
      0.2222222222222222      0.2222222222222222      0.0000000000000000  7.716049e-04 
      0.2222222222222222      0.2500000000000000      0.0000000000000000  7.716049e-04 
      0.2222222222222222      0.2777777777777778      0.0000000000000000  7.716049e-04 
      0.2222222222222222      0.3055555555555556      0.0000000000000000  7.716049e-04 
      0.2222222222222222      0.3333333333333333      0.0000000000000000  7.716049e-04 
      0.2222222222222222      0.3611111111111111      0.0000000000000000  7.716049e-04 
      0.2222222222222222      0.3888888888888889      0.0000000000000000  7.716049e-04 
      0.2222222222222222      0.4166666666666667      0.0000000000000000  7.716049e-04 
      0.2222222222222222      0.4444444444444444      0.0000000000000000  7.716049e-04 
      0.2222222222222222      0.4722222222222222      0.0000000000000000  7.716049e-04 
      0.2222222222222222      0.5000000000000000      0.0000000000000000  7.716049e-04 
      0.2222222222222222      0.5277777777777778      0.0000000000000000  7.716049e-04 
      0.2222222222222222      0.5555555555555556      0.0000000000000000  7.716049e-04 
      0.2222222222222222      0.5833333333333334      0.0000000000000000  7.716049e-04 
      0.2222222222222222      0.6111111111111112      0.0000000000000000  7.716049e-04 
      0.2222222222222222      0.6388888888888888      0.0000000000000000  7.716049e-04 
      0.2222222222222222      0.6666666666666666      0.0000000000000000  7.716049e-04 
      0.2222222222222222      0.6944444444444444      0.0000000000000000  7.716049e-04 
      0.2222222222222222      0.7222222222222222      0.0000000000000000  7.716049e-04 
      0.2222222222222222      0.7500000000000000      0.0000000000000000  7.716049e-04 
      0.2222222222222222      0.7777777777777778      0.0000000000000000  7.716049e-04 
      0.2222222222222222      0.8055555555555556      0.0000000000000000  7.716049e-04 
      0.2222222222222222      0.8333333333333334      0.0000000000000000  7.716049e-04 
      0.2222222222222222      0.8611111111111112      0.0000000000000000  7.716049e-04 
      0.2222222222222222      0.8888888888888888      0.0000000000000000  7.716049e-04 
      0.2222222222222222      0.9166666666666666      0.0000000000000000  7.716049e-04 
      0.2222222222222222      0.9444444444444444      0.0000000000000000  7.716049e-04 
      0.2222222222222222      0.9722222222222222      0.0000000000000000  7.716049e-04 
      0.2500000000000000      0.0000000000000000      0.0000000000000000  7.716049e-04 
      0.2500000000000000      0.0277777777777778      0.0000000000000000  7.716049e-04 
      0.2500000000000000      0.0555555555555556      0.0000000000000000  7.716049e-04 
      0.2500000000000000      0.0833333333333333      0.0000000000000000  7.716049e-04 
      0.2500000000000000      0.1111111111111111      0.0000000000000000  7.716049e-04 
      0.2500000000000000      0.1388888888888889      0.0000000000000000  7.716049e-04 
      0.2500000000000000      0.1666666666666667      0.0000000000000000  7.716049e-04 
      0.2500000000000000      0.1944444444444444      0.0000000000000000  7.716049e-04 
      0.2500000000000000      0.2222222222222222      0.0000000000000000  7.716049e-04 